circuit_heights=[3, 4, 5, 6, 7, 8, 9, 10, 12, 14, 18, 24, 3, 4, 5, 12, 8, 16];
circuit_widths=[3, 3, 3, 3, 3, 3, 3, 3, 3, 3, 3, 3, 4, 4, 4, 4, 5, 5];
max_height=168;
min_height=24;
n_circuits=18;
plate_width=24;
